! wB97X-D4 def2/J PrintBasis
! TightSCF DEFGRID3

%pal
  nprocs   4
end

%MaxCore   5000

%method
  D4S6     1.0000
  D4S8     0.9557
  D4A1     0.3456
  D4A2     5.5387
  D4S9     1.5000
end

%scf
  guess PModel
  MaxIter 125
end

%basis
  NewGTO H
   S    5
    1     30.18705336160000    0.01661821241313
    2      4.48418371990000    0.12135209876469
    3      1.01714989780000    0.47590854379373
    4      0.29250639610000    0.70953833223582
    5      0.08551656940000    0.17050689272963
   P    1
    1      0.82310534130000    1.00000000000000
  end
  NewGTO O
   S    4
    1      3.78348420838700   -0.37811873123766
    2      2.31402713501600    0.42164721234638
    3      0.58805172033500    0.75598466948406
    4      0.17283201396700    0.30473227918934
   P    4
    1     14.85433357685200    0.07640668475345
    2      3.47195983115400    0.35802577788272
    3      0.95215487563500    0.72325898726327
    4      0.24996911288300    0.58631364866882
   D    2
    1      1.32335920862200    0.57408094209085
    2      0.38496189320800    0.84399241808533
  end
  NewECP O 
  N_core  2
  lmax  f
   s    1
    1     10.44567000   50.77106900    2
   p    1
    1     18.04517400   -4.90355100    2
   d    1
    1      8.16479800   -3.31212400    2
   f    1
    1      1.00000000    0.00000000    2
  end
end

* xyzfile    0  1 struc.xyz
