! wB97X-D4 def2/J PrintBasis
! TightSCF DEFGRID3
%pal
  nprocs   4
end

%MaxCore   5000

%method
  D4S6     1.0000
  D4S8     1.1710
  D4A1     0.3478
  D4A2     5.5828
  D4S9     1.5000
end

%scf
  guess PModel
  MaxIter 125
end

%basis
  NewECP O 
  N_core  2
  lmax  f
   s    1
    1     10.44567000   50.77106900    2
   p    1
    1     18.04517400   -4.90355100    2
   d    1
    1      8.16479800   -3.31212400    2
   f    1
    1      1.00000000    0.00000000    2
  end
end

* xyz    0  1
O       0.00000000000000    0.00000000000000   -0.38936110000000
  NewGTO
   S    4
    1      3.78348420838700   -0.37815187588846
    2      2.31402713501600    0.42164207369489
    3      0.58805172033500    0.75597409747102
    4      0.17283201396700    0.31782776166122
   P    4
    1     14.85433357685200    0.07638762868545
    2      3.47195983115400    0.35797340053253
    3      0.95215487563500    0.72323157216700
    4      0.24996911288300    0.61374589103406
   D    2
    1      1.32335920862200    0.57351146663604
    2      0.38496189320800    0.84702326059881
  end
H       0.76298440000000    0.00000000000000    0.19468060000000
  NewGTO
   S    5
    1     30.18705336160000    0.01720672928071
    2      4.48418371990000    0.12344707870047
    3      1.01714989780000    0.47592164218070
    4      0.29250639610000    0.70600859905177
    5      0.08551656940000    0.05662052025533
   P    1
    1      0.82310534130000    1.00000000000000
  end
H      -0.76298440000000    0.00000000000000    0.19468060000000
  NewGTO
   S    5
    1     30.18705336160000    0.01720672928071
    2      4.48418371990000    0.12344707870047
    3      1.01714989780000    0.47592164218070
    4      0.29250639610000    0.70600859905177
    5      0.08551656940000    0.05662052025533
   P    1
    1      0.82310534130000    1.00000000000000
  end
*
